language Essence 1.3

letting blksize_delta be
        function(1 --> 2, 2 --> 2, 3 --> 2, 4 --> 2, 5 --> 2, 6 --> 2, 7 --> 2, 8 --> 2, 9 --> 2, 10 --> 2, 11 --> 2)
letting maxcars be
        function(1 --> 4, 2 --> 4, 3 --> 4, 4 --> 4, 5 --> 4, 6 --> 4, 7 --> 4, 8 --> 4, 9 --> 4, 10 --> 4, 11 --> 4)
letting n_cars be 158
letting n_classes be 2
letting n_options be 11
letting quantity be function(1 --> 80, 2 --> 78)
letting usage be relation((1, 1), (1, 3), (1, 4), (1, 5), (1, 6), (1, 7), (1, 8), (1, 9), (1, 10), (2, 2), (2, 11))
$ Visualisation for usage
$  1  1
$  1  3
$  1  4
$  1  5
$  1  6
$  1  7
$  1  8
$  1  9
$  1 10
$  2  2
$  2 11

